c WARNING: for repeatability, setting FPU to use double precision
d VARIABLES            222532       
d CONSTRAINTS          823132       
c ============================[ Problem Statistics ]=============================
c |                                                                             |
c |  Number of variables:        222532                                         |
c |  Number of clauses:          823132                                         |
c |  Parse time:                   0.14 s                                       |
c |                                                                             |
c ============================[ Search Statistics ]==============================
c | Conflicts |          ORIGINAL         |          LEARNT          | Progress |
c |           |    Vars  Clauses Literals |    Limit  Clauses Lit/Cl |          |
c ===============================================================================
c |       100 |  183067   721106  1810279 |   264405      100     10 | 17.735 % |
c |       250 |  183067   721106  1810279 |   290846      250      9 | 17.735 % |
c |       475 |  183067   721106  1810279 |   319930      475      9 | 17.735 % |
c |       812 |  183067   721106  1810279 |   351923      812     10 | 17.735 % |
c |      1318 |  183067   721106  1810279 |   387116     1318     13 | 17.735 % |
c |      2077 |  183067   721106  1810279 |   425827     2077     11 | 17.735 % |
c |      3216 |  183067   721106  1810279 |   468410     3216     13 | 17.735 % |
c |      4924 |  183067   721106  1810279 |   515251     4924     16 | 17.735 % |
c |      7486 |  183067   721106  1810279 |   566776     7486     40 | 17.735 % |
c |     11330 |  183067   721106  1810279 |   623454    11330     46 | 17.735 % |
c |     17096 |  183066   721094  1810250 |   685799    17093     40 | 17.735 % |
c |     25745 |  183066   721094  1810250 |   754379    25742     43 | 17.735 % |
c |     38719 |  183058   721046  1810134 |   829817    38688     54 | 17.739 % |
c ===============================================================================
c restarts              : 136
c conflicts             : 46174          (1826 /sec)
c decisions             : 638836         (0.00 % random) (25265 /sec)
c propagations          : 155420522      (6146607 /sec)
c conflict literals     : 2755345        (21.55 % deleted)
d RESTARTS             136
d FAILURES             46174        
d NODES                638836       
d BACKTRACKS           638836       
d PROPAGATIONS         155420522    
d NOGOODSIZE           59.67 
d MEMORY               82.00 
d TIME                 25.2856 

s UNSATISFIABLE
